ClassProblems/AMPL/IMM-Cement-and-steel-production.txt
# IM2-4-HS2011-E4.1-Concrete-steel-production-delivery
for{1..1} {
solve;
}
